solution status: optimal solution found
objective value:                                   16
x39                                                 1 	(obj:1)
x41                                                 1 	(obj:1)
x43                                                 1 	(obj:1)
x45                                                 1 	(obj:1)
x46                                                 1 	(obj:1)
x47                                                 1 	(obj:1)
x48                                                 1 	(obj:1)
x55                                                 1 	(obj:1)
x61                                                 1 	(obj:1)
x62                                                 1 	(obj:1)
x67                                                 1 	(obj:1)
x69                                                 1 	(obj:1)
x71                                                 1 	(obj:1)
x73                                                 1 	(obj:1)
x80                                                 1 	(obj:1)
x82                                                 1 	(obj:1)
thing.buffer_out_hole_y                             3 	(obj:0)
thing.buffer_out_hole_z                            22 	(obj:0)
thing.thing.chamber[2].thingy.v12_y                   16 	(obj:0)
thing.thing.chamber[2].thingy.v12_z                   23 	(obj:0)
thing.bead_trap_flush_hole_y                       16 	(obj:0)
thing.bead_trap_flush_hole_z                       19 	(obj:0)
thing.collect_hole_y                               18 	(obj:0)
thing.collect_hole_z                               18 	(obj:0)
thing.thing.chamber[2].thingy.v13_y                   18 	(obj:0)
thing.thing.chamber[2].thingy.v13_z                   19 	(obj:0)
thing.cell_out_hole_y                               3 	(obj:0)
thing.cell_out_hole_z                              12 	(obj:0)
thing.waste_hole_y                                 13 	(obj:0)
thing.waste_hole_z                                 19 	(obj:0)
thing.bead_out_hole_y                              20 	(obj:0)
thing.bead_out_hole_z                              19 	(obj:0)
thing.thing.chamber[2].thingy.p2_y                   19 	(obj:0)
thing.thing.chamber[2].thingy.p2_z                   23 	(obj:0)
thing.pump1_hole_y                                 11 	(obj:0)
thing.pump1_hole_z                                 23 	(obj:0)
thing.waste_ctrl_hole_y                            12 	(obj:0)
thing.waste_ctrl_hole_z                            19 	(obj:0)
thing.collect_ctrl_hole_y                          14 	(obj:0)
thing.collect_ctrl_hole_z                          22 	(obj:0)
thing.loop_exit_flush_hole_y                       23 	(obj:0)
thing.loop_exit_flush_hole_z                       22 	(obj:0)
thing.dead_end_ctrl_hole_y                          3 	(obj:0)
thing.dead_end_ctrl_hole_z                         18 	(obj:0)
thing.thing.chamber[2].thingy.p1_y                   17 	(obj:0)
thing.thing.chamber[2].thingy.p1_z                   23 	(obj:0)
thing.dead_end_flush_hole_y                        24 	(obj:0)
thing.dead_end_flush_hole_z                        23 	(obj:0)
thing.pump_flush0_hole_y                           13 	(obj:0)
thing.pump_flush0_hole_z                           23 	(obj:0)
thing.thing.chamber[1].thingy.p1_y                   15 	(obj:0)
thing.thing.chamber[1].thingy.p1_z                   23 	(obj:0)
